 vasp.6.4.2 20Jul23 (build Mar 01 2024 16:46:03) complex

 executed on             LinuxIFC date 2024.08.05  18:46:59

 INCAR:
   ENCUT = 544.000000
   POTIM = 0.000000
   SIGMA = 0.100000
   ZAB_VDW = -1.886700
   EDIFF = 1.00e-07
   EDIFFG = 0.00e+00
   ALGO = Fast
   GGA = BF
   IBRION = -1
   ISMEAR = 1
   ISYM = 0
   IWAVPR = 11
   NELM = 150
   NSW = 0
   NCORE = 8
   LUSE_VDW = .TRUE.
   INTERACTIVE = .TRUE.
   LREAL = Auto
   ISPIN = 2
   MAGMOM = 38*0.6000
   LBEEFENS = .TRUE.

 POTCAR:    PAW_PBE Ni 02Aug2007
 POTCAR:    PAW_PBE O 08Apr2002
 POTCAR:    PAW_PBE C 08Apr2002
|               ----> ADVICE to this user running VASP <----                  |
|     You have switched on vdW-DFT.                                           |
|     This routine was written and supplied by Jiri Klimes. We recommend      |
|     that you carefully read and cite the following publications:            |
|       J. Klimes, D.R. Bowler, A. Michelides                                 |
|          J. Phys.: Cond Matt. 22 022201 (2010)                              |
|       J. Klimes, D.R. Bowler, A. Michelides                                 |
|          Phys. Rev. B. 83, 195131 (2011)                                    |
|     and references therein.                                                 |

   TITEL  = PAW_PBE Ni 02Aug2007
   POMASS =   58.690; ZVAL   =   10.000    mass and valenz
   ENMAX  =  269.532; ENMIN  =  202.149 eV

   TITEL  = PAW_PBE O 08Apr2002
   POMASS =   16.000; ZVAL   =    6.000    mass and valenz
   ENMAX  =  400.000; ENMIN  =  300.000 eV

   TITEL  = PAW_PBE C 08Apr2002
   POMASS =   12.011; ZVAL   =    4.000    mass and valenz
   ENMAX  =  400.000; ENMIN  =  300.000 eV

 Optimization of the real space projectors (new method)

 maximal supplied QI-value         = 16.25
 optimisation between [QCUT,QGAM] = [ 11.86, 23.89] = [ 39.41,159.82] Ry
 Optimized for a Real-space Cutoff    1.33 Angstroem

   l    n(q)    QCUT    max X(q) W(low)/X(q) W(high)/X(q)  e(spline)
   2      9    11.864    60.317    0.17E-03    0.44E-03    0.25E-06
   2      9    11.864    55.921    0.17E-03    0.44E-03    0.25E-06
   0     10    11.864    51.690    0.19E-03    0.62E-04    0.17E-06
   0     10    11.864    30.015    0.17E-03    0.58E-04    0.15E-06
   1      9    11.864    18.849    0.12E-03    0.27E-03    0.15E-06
   1      9    11.864    14.624    0.99E-04    0.23E-03    0.13E-06
 Optimization of the real space projectors (new method)

[...]

   l    n(q)    QCUT    max X(q) W(low)/X(q) W(high)/X(q)  e(spline)
   0      7    11.883    20.381    0.27E-03    0.30E-03    0.20E-06
   0      7    11.883    15.268    0.30E-03    0.32E-03    0.22E-06
   1      7    11.883     5.964    0.42E-03    0.18E-03    0.24E-06
   1      7    11.883     5.382    0.37E-03    0.12E-03    0.21E-06
 Optimization of the real space projectors (new method)

 maximal supplied QI-value         = 25.13
 optimisation between [QCUT,QGAM] = [ 11.81, 23.88] = [ 39.08,159.64] Ry
 Optimized for a Real-space Cutoff    1.05 Angstroem

   l    n(q)    QCUT    max X(q) W(low)/X(q) W(high)/X(q)  e(spline)
   0      7    11.813   115.676    0.39E-03    0.24E-03    0.23E-06
   0      7    11.813    87.132    0.39E-03    0.24E-03    0.23E-06
   1      7    11.813     4.429    0.33E-03    0.73E-04    0.17E-06
   1      7    11.813     2.733    0.26E-03    0.47E-04    0.14E-06
|               ----> ADVICE to this user running VASP <----                  |
|     You enforced a specific xc type in the INCAR file but a different       |
|     type was found in the POTCAR file.                                      |
|     I HOPE YOU KNOW WHAT YOU ARE DOING!                                     |

  PAW_PBE Ni 02Aug2007                  :
  PAW_PBE O 08Apr2002                   :
  PAW_PBE C 08Apr2002                   :

 POSCAR: Ni  O  C
  positions in direct lattice
  velocities in cartesian coordinates
 exchange correlation table for  LEXCH =       17
   RHO(1)=    0.500       N(1)  =     2000
   RHO(2)=  100.500       N(2)  =     4000

 ion  position               nearest neighbor table
   1  0.000  0.000  0.383-  16 2.50  12 2.50   4 2.50   6 2.50   7 2.50   8 2.50   2 2.50   3 2.50
                            10 2.50
   2  0.333  0.000  0.383-   3 2.50   9 2.50  17 2.50  11 2.50  10 2.50   1 2.50   4 2.50   5 2.50
                             8 2.50
   3  0.667  0.000  0.383-   2 2.50   5 2.50  18 2.50  11 2.50   7 2.50   9 2.50   1 2.50   6 2.50
                            12 2.50
   4  0.000  0.333  0.383-   7 2.50   9 2.50  10 2.50  13 2.50  15 2.50   2 2.50   5 2.50   6 2.50
                             1 2.50
   5  0.333  0.333  0.383-   6 2.50   8 2.50  14 2.50   3 2.50   7 2.50  11 2.50  13 2.50   2 2.50
                             4 2.50
   6  0.667  0.333  0.383-   5 2.50   8 2.50   9 2.50  12 2.50  14 2.50  15 2.50   1 2.50   3 2.50
                             4 2.50
   7  0.000  0.667  0.383-   4 2.50   5 2.50  13 2.50  18 2.50   8 2.50   9 2.50   1 2.50   3 2.50
                            16 2.50
   8  0.333  0.667  0.383-   5 2.50   6 2.50   9 2.50  14 2.50  16 2.50  17 2.50   2 2.50   7 2.50
                             1 2.50
   9  0.667  0.667  0.383-   6 2.50   8 2.50   2 2.50   4 2.50  15 2.50  17 2.50   7 2.50   3 2.50
                            18 2.50
  10  0.111  0.111  0.461-  20 2.49  13 2.50  11 2.50  17 2.50  15 2.50   4 2.50   2 2.50  12 2.50
                            16 2.50   1 2.50  19 2.50  26 2.50
  11  0.444  0.111  0.461-  20 2.49  21 2.50  14 2.50  10 2.50  13 2.50   5 2.50   2 2.50   3 2.50
                            18 2.50  12 2.50  17 2.50  27 2.50
  12  0.778  0.111  0.461-  25 2.49  19 2.49  21 2.50  15 2.50  14 2.50   6 2.50   1 2.50  18 2.50
                            10 2.50  11 2.50  16 2.50   3 2.50
  13  0.111  0.444  0.461-  20 2.49  23 2.50  14 2.50  10 2.50  11 2.50   7 2.50   4 2.50   5 2.50
                            18 2.50  15 2.50  16 2.50  22 2.50
  14  0.444  0.444  0.461-  24 2.48  21 2.49  23 2.49  13 2.50  11 2.50   5 2.50  16 2.50  12 2.50
                             8 2.50   6 2.50  17 2.50  15 2.50
  15  0.778  0.444  0.461-  24 2.49  22 2.49  19 2.49  12 2.50  10 2.50   9 2.50   4 2.50   6 2.50
                            18 2.50  13 2.50  14 2.50  17 2.50
  16  0.111  0.778  0.461-  25 2.49  26 2.49  23 2.50  17 2.50  14 2.50   1 2.50   8 2.50  18 2.50
                            13 2.50  10 2.50  12 2.50   7 2.50
  17  0.444  0.778  0.461-  24 2.49  27 2.49  26 2.49  16 2.50  10 2.50   2 2.50   9 2.50   8 2.50
                            18 2.50  14 2.50  15 2.50  11 2.50
  18  0.778  0.778  0.461-  25 2.49  27 2.50  22 2.50   3 2.50   7 2.50  15 2.50  16 2.50  17 2.50
                            11 2.50  12 2.50  13 2.50   9 2.50
  19  0.888  0.222  0.539-  31 2.47  28 2.48  21 2.49  24 2.49  12 2.49  22 2.49  15 2.49  25 2.50
                            10 2.50  20 2.50  26 2.51  33 2.53
  20  0.222  0.222  0.539-  32 2.46  29 2.47  31 2.47  10 2.49  13 2.49  11 2.49  23 2.50  21 2.50
                            22 2.50  27 2.50  19 2.50  26 2.50
  21  0.555  0.222  0.539-  30 2.48  32 2.48  19 2.49  24 2.49  14 2.49  23 2.49  12 2.50  11 2.50
                            25 2.50  20 2.50  27 2.51  33 2.53
  22  0.888  0.555  0.539-  34 2.47  31 2.48  27 2.49  24 2.49  15 2.49  19 2.49  18 2.50  25 2.50
                            13 2.50  20 2.50  23 2.51  36 2.54
  23  0.222  0.555  0.539-  34 2.48  32 2.48  26 2.49  24 2.49  21 2.49  14 2.49  16 2.50  13 2.50
                            25 2.50  20 2.50  22 2.51  35 2.53
  24  0.555  0.555  0.538-  14 2.48  15 2.49  17 2.49  22 2.49  27 2.49  19 2.49  26 2.49  21 2.49
                            23 2.49  36 2.54  33 2.55  35 2.55
  25  0.889  0.889  0.539-  28 2.47  34 2.48  30 2.48  18 2.49  16 2.49  12 2.49  26 2.50  19 2.50
                            23 2.50  21 2.50  22 2.50  27 2.50
  26  0.222  0.888  0.539-  29 2.47  28 2.48  23 2.49  24 2.49  16 2.49  27 2.49  17 2.49  25 2.50
                            10 2.50  20 2.50  19 2.51  35 2.53
  27  0.555  0.888  0.539-  30 2.47  29 2.48  22 2.49  17 2.49  24 2.49  26 2.49  18 2.50  25 2.50
                            11 2.50  20 2.50  21 2.51  36 2.54
  28  0.999  0.999  0.616-  25 2.47  19 2.48  26 2.48  30 2.48  34 2.48  33 2.50  35 2.50  31 2.50
                            29 2.50
  29  0.331  0.003  0.616-  31 2.46  32 2.46  20 2.47  26 2.47  27 2.48  30 2.50  28 2.50  36 2.52
                            35 2.52
  30  0.667  0.999  0.616-  27 2.47  25 2.48  21 2.48  34 2.48  28 2.48  33 2.50  36 2.50  29 2.50
                            32 2.50
  31  0.003  0.331  0.616-  29 2.46  32 2.46  20 2.47  19 2.47  22 2.48  34 2.50  28 2.50  36 2.52
                            33 2.52
  32  0.331  0.331  0.616-  29 2.46  31 2.46  20 2.46  23 2.48  21 2.48  30 2.50  34 2.50  33 2.51
                            35 2.51
  33  0.666  0.333  0.619-  38 1.96  36 2.49  35 2.49  30 2.50  28 2.50  32 2.51  31 2.52  21 2.53
                            19 2.53  24 2.55
  34  0.999  0.667  0.616-  22 2.47  25 2.48  23 2.48  30 2.48  28 2.48  35 2.50  36 2.50  31 2.50
                            32 2.50
  35  0.333  0.666  0.619-  38 1.96  36 2.49  33 2.49  34 2.50  28 2.50  32 2.51  29 2.52  23 2.53
                            26 2.53  24 2.55
  36  0.666  0.666  0.619-  38 1.96  35 2.49  33 2.49  30 2.50  34 2.50  31 2.52  29 2.52  27 2.54
                            22 2.54  24 2.54
  37  0.555  0.555  0.716-  38 1.19
  38  0.555  0.555  0.670-  37 1.19  35 1.96  33 1.96  36 1.96

IMPORTANT INFORMATION: All symmetrisations will be switched off!
NOSYMM: (Re-)initialisation of all symmetry stuff for point group C_1.

                                     Primitive cell

  volume of cell :    1268.1431

  direct lattice vectors                    reciprocal lattice vectors
     7.488260813  0.000000000  0.000000000     0.133542357 -0.077100716  0.000000000
     3.744130406  6.485024094  0.000000000     0.000000000  0.154201432  0.000000000
     0.000000000  0.000000000 26.114139351     0.000000000  0.000000000  0.038293431

  length of vectors
     7.488260813  7.488260813 26.114139351     0.154201432  0.154201432  0.038293431

  position of ions in fractional coordinates (direct lattice)
     0.000000000  0.000000000  0.382934313
     0.333333333  0.000000000  0.382934313
     0.666666667  0.000000000  0.382934313
     0.000000000  0.333333333  0.382934313
     0.333333333  0.333333333  0.382934313
     0.666666667  0.333333333  0.382934313
     0.000000000  0.666666667  0.382934313
     0.333333333  0.666666667  0.382934313
     0.666666667  0.666666667  0.382934313
     0.111111111  0.111111111  0.460978104
     0.444444444  0.111111111  0.460978104
     0.777777778  0.111111111  0.460978104
     0.111111111  0.444444444  0.460978104
     0.444444444  0.444444444  0.460978104
     0.777777778  0.444444444  0.460978104
     0.111111111  0.777777778  0.460978104
     0.444444444  0.777777778  0.460978104
     0.777777778  0.777777778  0.460978104
     0.887849300  0.222419088  0.538986928
     0.221921061  0.221927075  0.538634329
[...]
    225       4.3187      0.00000
    226       4.6048      0.00000
    227       4.6142      0.00000
    228       4.9828      0.00000
    229       5.0327      0.00000
    230       5.1401      0.00000
    231       5.2609      0.00000
    232       5.6429      0.00000
    233       5.6854      0.00000
    234       5.8134      0.00000

 soft charge-density along one line, spin component           1
         0         1         2         3         4         5         6         7         8         9
 total charge-density along one line

 soft charge-density along one line, spin component           2
         0         1         2         3         4         5         6         7         8         9
 total charge-density along one line

------------------------ aborting loop because EDIFF is reached ----------------------------------------

  FORCE on cell =-STRESS in cart. coord.  units (eV):
  Direction    XX          YY          ZZ          XY          YZ          ZX
  Alpha Z   548.42347   548.42347   548.42347
  Ewald  247619.55991247616.35839************     2.87381     1.90657     3.49269
  Hartree257292.74525257291.17108************     1.41856     0.89148     1.60573
  E(xc)   -2109.07501 -2109.07736 -2111.16918     0.00217     0.00243     0.00508
  Local  ************************513653.39370    -4.06454    -2.67170    -4.86054
  n-local  -323.66869  -323.74179  -346.92864     0.06755     0.06629     0.11430
  augment  6394.67804  6394.86779  6440.04841    -0.16915    -0.06918    -0.12398
  Kinetic  2967.73587  2967.80629  2981.98990    -0.06309    -0.02382    -0.05341
  Fock        0.00000     0.00000     0.00000     0.00000     0.00000     0.00000
  Total      -9.18974    -9.26075    -2.30486     0.06531     0.10207     0.17987
  in kB     -11.61035   -11.70007    -2.91197     0.08252     0.12896     0.22725

 VOLUME and BASIS-vectors are now :
  energy-cutoff  :      544.00
  volume of cell :     1268.14
      direct lattice vectors                 reciprocal lattice vectors
     7.488260813  0.000000000  0.000000000     0.133542357 -0.077100716  0.000000000
     3.744130406  6.485024094  0.000000000     0.000000000  0.154201432  0.000000000
     0.000000000  0.000000000 26.114139351     0.000000000  0.000000000  0.038293431

  length of vectors
     7.488260813  7.488260813 26.114139351     0.154201432  0.154201432  0.038293431

 FORCES acting on ions
    electron-ion (+dipol)            ewald-force                    non-local-force                 convergence-correction
   -.395E-01 -.188E-01 0.352E+04   0.428E-02 -.136E-02 -.352E+04   0.430E-01 0.248E-01 -.138E+01   -.125E-03 -.177E-03 0.391E-03
   0.433E-02 -.107E+00 0.352E+04   -.463E-02 0.124E+00 -.352E+04   0.692E-03 -.403E-01 -.142E+01   -.856E-04 -.230E-03 0.371E-03
   0.344E-01 -.913E-02 0.352E+04   -.138E-03 -.113E-01 -.352E+04   -.429E-01 0.251E-01 -.138E+01   0.211E-03 -.231E-03 0.366E-03
   -.938E-01 0.578E-01 0.352E+04   0.108E+00 -.662E-01 -.352E+04   -.346E-01 0.207E-01 -.142E+01   -.119E-03 -.203E-04 0.360E-03
   0.105E+00 0.591E-01 0.352E+04   -.118E+00 -.669E-01 -.352E+04   0.345E-01 0.199E-01 -.142E+01   0.454E-04 0.354E-04 0.334E-03
   -.112E-01 0.227E+00 0.352E+04   0.974E-02 -.234E+00 -.352E+04   0.680E-03 0.163E-01 -.141E+01   0.733E-04 -.138E-03 0.294E-03
   0.583E-02 0.337E-01 0.352E+04   -.651E-02 0.602E-02 -.352E+04   0.348E-03 -.496E-01 -.138E+01   -.449E-05 0.341E-03 0.412E-03
   0.192E+00 -.126E+00 0.352E+04   -.199E+00 0.129E+00 -.352E+04   0.144E-01 -.750E-02 -.141E+01   -.578E-04 0.251E-03 0.357E-03
   -.199E+00 -.118E+00 0.352E+04   0.205E+00 0.121E+00 -.352E+04   -.141E-01 -.812E-02 -.141E+01   0.625E-04 0.169E-03 0.359E-03
   0.953E+00 0.581E+00 0.125E+04   -.935E+00 -.571E+00 -.125E+04   -.111E-01 -.640E-02 -.203E+00   -.157E-03 -.191E-03 0.560E-03
   -.769E+00 0.625E+00 0.125E+04   0.743E+00 -.615E+00 -.125E+04   0.109E-01 -.679E-02 -.204E+00   0.808E-04 -.196E-03 0.586E-03
   0.405E-02 0.348E+00 0.125E+04   -.671E-02 -.368E+00 -.125E+04   -.912E-03 0.201E-01 -.160E+00   0.760E-04 -.292E-03 0.633E-03
   0.137E+00 -.987E+00 0.125E+04   -.142E+00 0.959E+00 -.125E+04   -.526E-03 0.128E-01 -.204E+00   -.506E-04 0.249E-03 0.665E-03
   0.194E+01 0.108E+01 0.125E+04   -.202E+01 -.112E+01 -.125E+04   0.523E-01 0.302E-01 -.132E+00   0.315E-04 0.132E-03 0.728E-03
   -.190E+01 0.115E+01 0.125E+04   0.197E+01 -.120E+01 -.125E+04   -.535E-01 0.298E-01 -.132E+00   0.192E-04 0.548E-04 0.677E-03
   0.270E+00 -.154E+00 0.125E+04   -.289E+00 0.162E+00 -.125E+04   0.169E-01 -.109E-01 -.160E+00   -.139E-03 0.141E-03 0.598E-03
   0.763E-01 -.223E+01 0.125E+04   -.802E-01 0.231E+01 -.125E+04   -.845E-03 -.613E-01 -.132E+00   -.498E-04 0.273E-04 0.561E-03
   -.165E+00 -.995E-01 0.125E+04   0.177E+00 0.106E+00 -.125E+04   -.175E-01 -.101E-01 -.160E+00   0.189E-03 0.728E-04 0.571E-03
   0.551E+00 0.451E+01 -.103E+04   -.725E+00 -.442E+01 0.103E+04   0.172E+00 -.936E-01 -.569E-01   -.212E-03 -.142E-03 0.109E-03
   -.546E-01 0.735E-02 -.102E+04   0.563E-01 -.675E-02 0.102E+04   -.230E-02 -.121E-02 0.231E+00   -.814E-04 0.535E-04 -.843E-04
   -.489E+00 0.467E+01 -.103E+04   0.661E+00 -.458E+01 0.103E+04   -.175E+00 -.924E-01 -.610E-01   0.294E-03 -.635E-04 0.636E-04
   -.359E+01 -.291E+01 -.103E+04   0.342E+01 0.302E+01 0.103E+04   0.167E+00 -.104E+00 -.580E-01   0.242E-04 0.219E-03 0.845E-04
   0.369E+01 -.277E+01 -.103E+04   -.352E+01 0.287E+01 0.103E+04   -.168E+00 -.104E+00 -.621E-01   0.173E-04 0.318E-03 0.833E-04
   0.602E-01 -.107E-01 -.101E+04   -.615E-01 0.106E-01 0.101E+04   -.643E-03 -.539E-03 0.144E+00   -.412E-04 0.375E-05 0.206E-03
   0.213E+00 0.850E-01 -.102E+04   -.216E+00 -.858E-01 0.102E+04   -.388E-02 -.224E-02 0.254E+00   0.915E-04 -.215E-04 0.823E-04
   0.416E+01 -.177E+01 -.103E+04   -.416E+01 0.157E+01 0.103E+04   0.532E-02 0.195E+00 -.580E-01   -.283E-03 -.172E-03 0.571E-04
   -.432E+01 -.171E+01 -.103E+04   0.432E+01 0.151E+01 0.103E+04   -.711E-02 0.197E+00 -.582E-01   0.190E-03 -.197E-03 0.120E-04
   0.410E+01 0.244E+01 -.333E+04   -.407E+01 -.242E+01 0.333E+04   -.402E-01 -.231E-01 0.135E+01   -.170E-03 -.163E-03 -.174E-03
   -.230E+00 -.315E+02 -.331E+04   0.235E+00 0.318E+02 0.331E+04   0.364E-03 -.218E+00 0.163E+01   -.137E-03 -.287E-03 -.145E-04
   -.406E+01 0.272E+01 -.333E+04   0.403E+01 -.269E+01 0.333E+04   0.294E-01 -.222E-01 0.135E+01   0.308E-03 -.182E-03 -.154E-03
   -.275E+02 0.156E+02 -.331E+04   0.277E+02 -.157E+02 0.331E+04   -.189E+00 0.108E+00 0.163E+01   -.265E-03 0.123E-03 -.546E-04
   0.281E+02 0.162E+02 -.332E+04   -.283E+02 -.163E+02 0.331E+04   0.193E+00 0.111E+00 0.164E+01   0.176E-03 0.220E-03 -.781E-04
   -.596E+00 0.134E+03 -.325E+04   0.608E+00 -.136E+03 0.324E+04   -.978E-02 0.238E+01 0.154E+01   0.839E-04 0.519E-04 -.141E-03
   0.287E+00 -.488E+01 -.333E+04   -.282E+00 0.484E+01 0.333E+04   -.465E-02 0.370E-01 0.135E+01   0.444E-04 0.264E-03 -.171E-03
   0.116E+03 -.674E+02 -.325E+04   -.118E+03 0.686E+02 0.324E+04   0.205E+01 -.120E+01 0.154E+01   -.187E-04 0.554E-04 -.122E-03
   -.116E+03 -.672E+02 -.325E+04   0.118E+03 0.684E+02 0.324E+04   -.207E+01 -.119E+01 0.155E+01   -.258E-04 -.753E-04 -.836E-04
   -.283E+00 -.121E+00 -.249E+04   0.357E+00 0.150E+00 0.254E+04   -.721E-01 -.261E-01 -.560E+02   0.140E-06 0.938E-05 0.130E-04
   0.231E+00 0.824E-01 -.151E+04   -.248E+00 -.885E-01 0.149E+04   0.221E-01 0.883E-02 0.115E+02   -.601E-05 0.239E-04 -.516E-04
   0.503E-01 0.194E-01 0.447E+02   -.431E-13 -.782E-13 0.225E-10   -.987E-01 -.467E-01 -.448E+02   -.109E-04 0.392E-04 0.841E-02

 POSITION                                       TOTAL-FORCE (eV/Angst)
      0.00000      0.00000     10.00000         0.008955      0.005168      0.104902
      2.49609      0.00000     10.00000         0.001577     -0.023177      0.126407
      4.99217      0.00000     10.00000        -0.007140      0.005208      0.104642
      1.24804      2.16167     10.00000        -0.019275      0.012950      0.126378
      3.74413      2.16167     10.00000         0.022258      0.012842      0.125666
      6.24022      2.16167     10.00000         0.000578      0.009826      0.100441
      2.49609      4.32335     10.00000         0.000935     -0.008814      0.104644
      4.99217      4.32335     10.00000         0.008795     -0.004446      0.100458
      7.48826      4.32335     10.00000        -0.007010     -0.004078      0.100604
      1.24804      0.72056     12.03805         0.007228      0.003894     -0.145613
      3.74413      0.72056     12.03805        -0.013751      0.003469     -0.147346
      6.24022      0.72056     12.03805        -0.002226      0.000178     -0.098661
      2.49609      2.88223     12.03805        -0.003901     -0.013627     -0.147270
      4.99217      2.88223     12.03805        -0.022657     -0.012647     -0.088320
      7.48826      2.88223     12.03805         0.017850     -0.014123     -0.087077
      3.74413      5.04391     12.03805        -0.000784     -0.002260     -0.098324
      6.24022      5.04391     12.03805        -0.003490      0.022486     -0.086894
      8.73630      5.04391     12.03805        -0.004308     -0.002519     -0.097851
      7.48121      1.44239     14.07518        -0.001413      0.001862     -0.000445
      2.49273      1.43920     14.06597         0.000674      0.000160     -0.003127
      4.99240      1.44257     14.07446        -0.000579      0.001945      0.002247
      8.72825      3.60231     14.07507        -0.001947      0.000152     -0.000390
      3.74524      3.60226     14.07466         0.002970     -0.000460      0.000102
      6.23719      3.60100     14.06163        -0.000711      0.000083      0.000987
      9.98132      5.76269     14.06521        -0.005084     -0.002285      0.000516
      4.98971      5.75763     14.07534         0.001791     -0.002274     -0.002323
      7.48379      5.75775     14.07503        -0.000847     -0.001016     -0.000184
     11.21878      6.47741     16.08392        -0.002327     -0.001748      0.000724
      2.48839      0.01718     16.08129         0.006402      0.002137      0.004296
      8.73427      6.47659     16.08333        -0.001018      0.002585      0.000296
      1.25890      2.14674     16.08131         0.005475      0.002100      0.004018
      3.71923      2.14730     16.08233        -0.003230     -0.001374      0.001868
      6.23164      2.15818     16.16062         0.003034     -0.001223      0.002074
      9.97592      4.32601     16.08338         0.001683     -0.001811      0.000703
      4.98483      4.31777     16.16062        -0.001043      0.002003      0.002053
      7.47693      4.31700     16.16081         0.003086      0.001883     -0.002656
      6.23139      3.59755     18.68751         0.002966      0.003473     -0.002011
      6.22982      3.59693     17.49627         0.006487      0.003479     -0.005535
    total drift:                               -0.048375     -0.027200     -0.016375

  FREE ENERGIE OF THE ION-ELECTRON SYSTEM (eV)
  free  energy   TOTEN  =       -93.05533445 eV

  energy  without entropy=      -93.04598550  energy(sigma->0) =      -93.05221813

 BEEFens 2000 ensemble energies
             -0.502021556696607E+03
             -0.398345948484464E+02
             -0.116256429568636E+03
              0.388717988813359E+03
             -0.183471708034180E+03
             -0.161040868659470E+03
             -0.342379396061436E+03
             -0.763968896819483E+03
             -0.366042284914154E+03
             -0.410088538519477E+03
             -0.334015089035037E+03
              0.391469109078771E+02
              0.122557108119629E+02
              0.263588780378825E+02
              0.268205658496527E+02
              0.404641247811746E+03
             -0.178848113735191E+03
             -0.158403635914336E+03
              0.150470829227182E+03
             -0.954260299608700E+03
              0.502194781545278E+03
             -0.229843915508700E+03
             -0.437021805831063E+02
             -0.103506958857324E+03
             -0.491732703885518E+02
             -0.501540339636917E+02
              0.741784885989827E+03
             -0.182759316824393E+03
             -0.708989667520709E+02
             -0.451297254141996E+03
              0.664516460331291E+03
             -0.117723473059058E+03
             -0.334758019252280E+03
              0.205976143172660E+03
             -0.364616251252883E+02
              0.167191575418421E+03
             -0.273219008377082E+02
              0.612539423573085E+02
              0.234192341784302E+03
             -0.873948958904404E+03
              0.464951970466450E+03
              0.110077870294622E+03
             -0.491899406394696E+02
             -0.289863720759116E+03
              0.966290689940256E+02
             -0.154594503805393E+03
              0.376397893938047E+03
              0.317444430916322E+03
             -0.236760618318837E+03
             -0.250923520952512E+03
             -0.256550166248933E+03
             -0.290584619244345E+03
              0.975014593564774E+02
             -0.426594009026617E+03
              0.117252194585976E+03
              0.514404962935443E+03
              0.586856871130725E+03
              0.298306473285214E+03
              0.138155271096198E+03
              0.235006812930794E+03
[...]
             -0.615122115837697E+03
              0.116236772351331E+02
             -0.115694255290416E+02
             -0.837963604717743E+02
              0.644767340175122E+01
             -0.573608800720292E+03
             -0.158441564380077E+03
              0.499246416673915E+02
              0.754080779911790E+02
              0.413555913944011E+03
             -0.341625354770217E+03
              0.523606065952658E+03
             -0.345757224252310E+03
              0.189241861054425E+03
              0.332430109643502E+03
 BEEF xc energy contributions
           1 :   -6493.11965533977
           2 :    5801.36030984509
           3 :   -4669.78102687565
           4 :    3460.34011102054
           5 :   -2464.41354843232
           6 :    1791.60787383596
           7 :   -1377.10011139311
           8 :    1080.19027950853
           9 :   -795.949927704842
          10 :    508.224719976089
          11 :   -265.081376473314
          12 :    113.981467285568
          13 :   -54.1042679858935
          14 :    38.0390601201858
          15 :   -11.4114647810644
          16 :   -47.5752916059126
          17 :    119.621000926187
          18 :   -168.535269697946
          19 :    174.140208895544
          20 :   -147.092718877249
          21 :    117.061759956893
          22 :   -107.687421036188
          23 :    119.882818381749
          24 :   -135.354679046841
          25 :    134.709064027693
          26 :   -113.853466880580
          27 :    85.8238905500693
          28 :   -68.3708016349669
          29 :    68.9605799554592
          30 :   -79.6776987149184
          31 :   -711.053113735582
          32 :   -511.816410211094

  positions in direct lattice
     0.0000000     0.0000000     0.3829343
     0.3333333     0.0000000     0.3829343
     0.6666667     0.0000000     0.3829343
     0.0000000     0.3333333     0.3829343
     0.3333333     0.3333333     0.3829343
     0.6666667     0.3333333     0.3829343
     0.0000000     0.6666667     0.3829343
     0.3333333     0.6666667     0.3829343
     0.6666667     0.6666667     0.3829343
     0.1111111     0.1111111     0.4609781
     0.4444444     0.1111111     0.4609781
     0.7777778     0.1111111     0.4609781
     0.1111111     0.4444444     0.4609781
     0.4444444     0.4444444     0.4609781
     0.7777778     0.4444444     0.4609781
     0.1111111     0.7777778     0.4609781
     0.4444444     0.7777778     0.4609781
     0.7777778     0.7777778     0.4609781
     0.8878493     0.2224191     0.5389869
     0.2219211     0.2219271     0.5386343
     0.5554739     0.2224469     0.5389594
     0.8878496     0.5554818     0.5389827
     0.2224115     0.5554729     0.5389672
     0.5552890     0.5552801     0.5384680
     0.8886217     0.8886151     0.5386053
     0.2224198     0.8878349     0.5389930
     0.5554757     0.8878534     0.5389810
     0.9987692     0.9988254     0.6159085
     0.3309807     0.0026485     0.6158078
     0.6670452     0.9986992     0.6158860
     0.0026016     0.3310311     0.6158084
     0.3311167     0.3311172     0.6158475
     0.6657905     0.3327943     0.6188458
     0.9986692     0.6670771     0.6158877
     0.3327829     0.6658060     0.6188456
     0.6656432     0.6656879     0.6188528
     0.5547808     0.5547473     0.7156089
     0.5546181     0.5546523     0.6699922

 reached required accuracy - stopping structural energy minimisation
 writing wavefunctions